6 9 19 1 3 16 2 14 7 17 13 0 15 4 8 18 10 12 5 11  
6 9 19 7 16 0 3 2 15 18 14 13 1 4 8 5 10 17 11 12  
6 9 19 3 16 0 2 18 14 7 15 17 13 4 8 5 10 12 1 11  
6 9 19 7 16 0 2 3 15 18 14 1 8 4 5 10 17 11 13 12  
6 9 19 7 16 1 3 2 15 18 14 17 13 4 0 12 8 5 10 11  
9 6 19 7 16 1 3 2 15 18 14 17 13 4 0 8 12 5 10 11  
6 9 19 18 16 0 3 2 14 7 15 17 13 4 8 5 10 12 1 11  
6 9 19 18 16 0 2 3 14 7 15 17 13 4 8 5 10 12 1 11  
6 9 19 7 16 0 2 3 15 18 14 1 13 4 8 5 10 17 11 12  
6 9 19 7 16 0 2 3 15 18 14 1 4 12 8 5 10 17 11 13  
6 9 19 7 3 16 2 14 18 17 1 0 15 13 4 12 8 5 10 11  
6 9 19 18 16 0 2 3 14 7 15 17 1 4 10 12 13 8 5 11  
6 9 19 7 16 0 2 3 15 18 14 1 13 4 12 8 5 10 11 17  
6 9 19 7 16 0 2 3 15 18 14 13 1 4 8 5 10 17 11 12  
6 9 19 18 16 0 3 2 14 7 15 17 1 4 10 12 13 8 5 11  
6 9 19 7 16 0 2 3 15 18 14 13 1 4 8 5 10 17 11 12  
6 9 19 7 16 0 2 3 15 14 18 17 1 13 4 8 5 10 12 11  
6 9 19 7 16 3 15 14 18 17 1 0 2 13 4 8 5 10 12 11  
6 9 19 7 16 3 2 14 18 17 1 0 15 13 12 4 8 5 10 11  
6 9 19 3 16 7 2 14 18 17 1 0 15 13 4 8 5 10 12 11  
6 9 16 3 19 7 2 14 18 17 1 8 15 13 4 12 5 0 10 11  
9 6 19 7 16 1 3 2 15 18 14 17 13 4 0 8 12 5 10 11  
6 9 19 7 16 3 2 14 18 17 1 0 15 13 12 4 8 5 10 11  
6 9 19 7 16 0 2 3 14 18 15 13 8 1 4 5 10 12 17 11  
